(set-logic BV) (define-fun origCir ((n155 Bool) (n132 Bool) (n135 Bool) (n128 Bool)) Bool (and n155 (and (and n135 (not n132)) (not n128)))) (synth-fun skel ((n155 Bool) (n132 Bool) (n135 Bool) (n128 Bool)) Bool) (declare-var n155 Bool) (declare-var n132 Bool) (declare-var n135 Bool) (declare-var n128 Bool) (constraint (= (origCir n155 n132 n135 n128) (skel n155 n132 n135 n128))) (check-synth)
